Maximize
obj:  10 x1 + 7 x2 + 9 x3 + 14.5 y1 + 13.5 y2 + 16 y3 + 5 z1 + 9 z2 + 6 z3

Subject To
w1: x1 + y1 + z1 <= 250
w2: x2 + y2 + z2 <= 310
w3: x3 + y3 + z3 <= 390
v1: x1 + x2 + x3 <= 360
v2: y1 + y2 + y3 <= 400
v3: z1 + z2 + z3 <= 500

Bounds
x1 => 0
x2 => 0
x3 => 0
y1 => 0
y2 => 0
y3 => 0
z1 => 0
z2 => 0
z3 => 0

End